Fuzzynet%1.0%0.500000%
1
FUZZYNET 1.0
0
2
1
Descripción
1
Descripción del Proyecto
1
Autores
1
Autores del Proyecto
1
1
Ejemplo
0
1
Salida
0
0
1
2
0
1
0
1
1
Salida
0
0
0.000000
1.000000
0
0
0
0.500000
0.500000
0.500000
2
0.000000
1.000000
0.000000
1.000000
5
1
Muy bajo
2
0.000000
0.222222
0.000000
0.111111
1
Bajo
2
0.111111
0.444444
0.222222
0.333333
1
Medio
2
0.333333
0.666667
0.444444
0.555556
1
Alto
2
0.555556
0.888889
0.666667
0.777778
1
Muy alto
2
0.777778
1.000000
0.888889
1.000000
2
1
A
0
0
2
1
0
0
0
1
1
A
0
0
0.000000
1.000000
0
0
0
0.500000
0.500000
0.500000
2
0.000000
1.000000
0.000000
1.000000
3
1
Bajo
10
0.000000
0.400000
0.000000
0.352860
0.000000
0.333333
0.000000
0.318350
0.000000
0.305719
0.000000
0.294281
0.000000
0.281650
0.000000
0.266667
0.000000
0.247140
0.000000
0.200000
1
Medio
10
0.200000
0.800000
0.247140
0.752860
0.266667
0.733333
0.281650
0.718350
0.294281
0.705719
0.305719
0.694281
0.318350
0.681650
0.333333
0.666667
0.352860
0.647140
0.400000
0.600000
1
Alto
10
0.600000
1.000000
0.647141
1.000000
0.666667
1.000000
0.681650
1.000000
0.694281
1.000000
0.705719
1.000000
0.718350
1.000000
0.733333
1.000000
0.752860
1.000000
0.800000
1.000000
0
1
0
1
Combinación Lineal
0
1
1
a[0]
1
1
a
0.000000
1
B
0
0
2
3
0
1
0
1
1
B
0
0
0.000000
1.000000
0
0
0
0.500000
0.500000
0.500000
2
0.000000
1.000000
0.000000
1.000000
3
1
Bajo
2
0.000000
0.400000
0.000000
0.200000
1
Medio
2
0.200000
0.800000
0.400000
0.600000
1
Alto
2
0.600000
1.000000
0.800000
1.000000
2
1
B1
0
0
3
2
0
1
0
1
1
B1
0
0
0.000000
1.000000
0
0
0
0.500000
0.500000
0.500000
2
0.000000
1.000000
0.000000
1.000000
5
1
Muy bajo
2
0.000000
0.222222
0.000000
0.111111
1
Bajo
2
0.111111
0.444444
0.222222
0.333333
1
Medio
2
0.333333
0.666667
0.444444
0.555556
1
Alto
2
0.555556
0.888889
0.666667
0.777778
1
Muy alto
2
0.777778
1.000000
0.888889
1.000000
0
1
0
1
Combinación Lineal
0
1
1
a[0]
1
1
a
0.000000
1
B2
0
0
3
4
0
1
0
1
1
B2
0
0
0.000000
1.000000
0
0
0
0.500000
0.500000
0.500000
2
0.000000
1.000000
0.000000
1.000000
5
1
Muy bajo
2
0.000000
0.222222
0.000000
0.111111
1
Bajo
2
0.111111
0.444444
0.222222
0.333333
1
Medio
2
0.333333
0.666667
0.444444
0.555556
1
Alto
2
0.555556
0.888889
0.666667
0.777778
1
Muy alto
2
0.777778
1.000000
0.888889
1.000000
0
1
0
1
Combinación Lineal
0
1
1
a[0]
1
1
a
0.000000
9
2
1
Producto
0
1
1
1
1
a[0]
1
1
a
0.000000
1.000000
1.000000
1
2
1
Combinación Lineal
0
1
1
1
1
a[0]
1
1
a
0.000000
0.500000
0.500000
0
2
1
Caso01
0
3
1
A
0
0
0.000000
1.000000
0
0
4
0.500000
0.500000
0.500000
2
0.000000
1.000000
0.000000
1.000000
3
1
Bajo
10
0.000000
0.400000
0.000000
0.352860
0.000000
0.333333
0.000000
0.318350
0.000000
0.305719
0.000000
0.294281
0.000000
0.281650
0.000000
0.266667
0.000000
0.247140
0.000000
0.200000
1
Medio
10
0.200000
0.800000
0.247140
0.752860
0.266667
0.733333
0.281650
0.718350
0.294281
0.705719
0.305719
0.694281
0.318350
0.681650
0.333333
0.666667
0.352860
0.647140
0.400000
0.600000
1
Alto
10
0.600000
1.000000
0.647141
1.000000
0.666667
1.000000
0.681650
1.000000
0.694281
1.000000
0.705719
1.000000
0.718350
1.000000
0.733333
1.000000
0.752860
1.000000
0.800000
1.000000
1
B1
0
0
0.000000
1.000000
0
0
2
0.500000
0.200000
0.400000
2
0.000000
1.000000
0.000000
1.000000
5
1
Muy bajo
2
0.000000
0.222222
0.000000
0.111111
1
Bajo
2
0.111111
0.444444
0.222222
0.333333
1
Medio
2
0.333333
0.666667
0.444444
0.555556
1
Alto
2
0.555556
0.888889
0.666667
0.777778
1
Muy alto
2
0.777778
1.000000
0.888889
1.000000
1
B2
0
0
0.000000
1.000000
0
0
3
0.500000
0.500000
0.500000
2
0.200000
0.400000
0.300000
0.300000
5
1
Muy bajo
2
0.000000
0.222222
0.000000
0.111111
1
Bajo
2
0.111111
0.444444
0.222222
0.333333
1
Medio
2
0.333333
0.666667
0.444444
0.555556
1
Alto
2
0.555556
0.888889
0.666667
0.777778
1
Muy alto
2
0.777778
1.000000
0.888889
1.000000
0
1
Caso02
0
3
1
A
0
0
0.000000
1.000000
1
0
4
0.500000
0.500000
0.500000
2
0.000000
1.000000
0.000000
1.000000
3
1
Bajo
10
0.000000
0.400000
0.000000
0.352860
0.000000
0.333333
0.000000
0.318350
0.000000
0.305719
0.000000
0.294281
0.000000
0.281650
0.000000
0.266667
0.000000
0.247140
0.000000
0.200000
1
Medio
10
0.200000
0.800000
0.247140
0.752860
0.266667
0.733333
0.281650
0.718350
0.294281
0.705719
0.305719
0.694281
0.318350
0.681650
0.333333
0.666667
0.352860
0.647140
0.400000
0.600000
1
Alto
10
0.600000
1.000000
0.647141
1.000000
0.666667
1.000000
0.681650
1.000000
0.694281
1.000000
0.705719
1.000000
0.718350
1.000000
0.733333
1.000000
0.752860
1.000000
0.800000
1.000000
1
B1
0
0
0.000000
1.000000
0
0
4
0.500000
0.500000
0.500000
2
0.000000
1.000000
0.000000
1.000000
5
1
Muy bajo
2
0.000000
0.222222
0.000000
0.111111
1
Bajo
2
0.111111
0.444444
0.222222
0.333333
1
Medio
2
0.333333
0.666667
0.444444
0.555556
1
Alto
2
0.555556
0.888889
0.666667
0.777778
1
Muy alto
2
0.777778
1.000000
0.888889
1.000000
1
B2
0
0
0.000000
1.000000
0
0
1
0.900000
0.500000
0.500000
2
0.000000
1.000000
0.000000
1.000000
5
1
Muy bajo
2
0.000000
0.222222
0.000000
0.111111
1
Bajo
2
0.111111
0.444444
0.222222
0.333333
1
Medio
2
0.333333
0.666667
0.444444
0.555556
1
Alto
2
0.555556
0.888889
0.666667
0.777778
1
Muy alto
2
0.777778
1.000000
0.888889
1.000000
0
